
Gurobi 9.1.0 (win64) logging started Sun Dec 13 15:42:08 2020

Changed value of parameter LogFile to logs/iteration6
   Prev:   Default: 
Gurobi Optimizer version 9.1.0 build v9.1.0rc0 (win64)
Thread count: 4 physical cores, 8 logical processors, using up to 8 threads
Optimize a model with 136 rows, 386 columns and 1386 nonzeros
Model fingerprint: 0xc50977ba
Coefficient statistics:
  Matrix range     [1e+00, 1e+00]
  Objective range  [1e+03, 4e+03]
  Bounds range     [0e+00, 0e+00]
  RHS range        [1e+00, 1e+00]
Presolve removed 59 rows and 59 columns
Presolve time: 0.00s
Presolved: 77 rows, 327 columns, 1325 nonzeros

Iteration    Objective       Primal Inf.    Dual Inf.      Time
       0    1.1155950e+05   6.200000e+01   0.000000e+00      0s
     141    1.4218317e+05   0.000000e+00   0.000000e+00      0s

Solved in 141 iterations and 0.00 seconds
Optimal objective  1.421831667e+05

Solutionx[5] 1.000000 
x[10] 1.000000 
x[13] 1.000000 
x[15] 1.000000 
x[17] 1.000000 
x[24] 1.000000 
x[26] 1.000000 
x[27] 1.000000 
x[28] 1.000000 
x[29] 1.000000 
x[35] 1.000000 
x[36] 1.000000 
x[38] 1.000000 
x[50] 1.000000 
x[52] 1.000000 
x[54] 1.000000 
x[55] 1.000000 
x[58] 1.000000 
x[60] 1.000000 
x[61] 1.000000 
x[63] 1.000000 
x[64] 1.000000 
x[65] 1.000000 
x[66] 1.000000 
x[68] 1.000000 
x[70] 1.000000 
x[71] 1.000000 
x[72] 1.000000 
x[73] 1.000000 
x[74] 1.000000 
x[75] 1.000000 
x[76] 1.000000 
x[77] 1.000000 
x[78] 1.000000 
x[82] 1.000000 
x[83] 1.000000 
x[84] 1.000000 
x[87] 1.000000 
x[90] 1.000000 
x[91] 1.000000 
x[92] 1.000000 
x[93] 1.000000 
x[96] 1.000000 
x[97] 1.000000 
x[99] 1.000000 
x[100] 1.000000 
x[101] 1.000000 
x[102] 1.000000 
x[103] 1.000000 
x[104] 1.000000 
x[105] 1.000000 
x[107] 1.000000 
x[108] 1.000000 
x[111] 1.000000 
x[112] 1.000000 
x[113] 1.000000 
x[114] 1.000000 
x[116] 1.000000 
x[117] 1.000000 
x[118] 1.000000 
x[120] 1.000000 
x[121] 1.000000 
x[122] 1.000000 
x[123] 1.000000 
x[124] 1.000000 
x[125] 1.000000 
x[126] 1.000000 
x[127] 1.000000 
x[128] 1.000000 
x[129] 1.000000 
x[130] 1.000000 
x[131] 1.000000 
x[132] 1.000000 
x[133] 1.000000 
x[134] 1.000000 
x[135] 1.000000 
x[264] 1.000000 
x[906] 1.000000 
x[2455] 1.000000 
x[5967] 1.000000 
x[20743] 1.000000 
x[9171] 1.000000 
x[8411] 1.000000 
x[31580] 1.000000 
x[1033] 1.000000 
x[1106] 1.000000 
x[6664] 1.000000 
x[19984] 1.000000 
